60
1 0 2
2 0 5
2 1 5
3 0 4
3 1 2
3 2 5
4 0 5
4 1 3
4 2 2
4 3 2
5 0 4
5 1 5
5 2 4
5 3 2
5 4 1
6 0 1
6 1 3
6 2 1
6 3 5
6 4 2
6 5 1
7 0 4
7 1 3
7 2 3
7 3 2
7 4 1
7 5 3
7 6 4
8 0 5
8 1 2
8 2 1
8 3 3
8 4 4
8 5 2
8 6 1
8 7 5
9 0 2
9 1 2
9 2 2
9 3 5
9 4 4
9 5 1
9 6 2
9 7 1
9 8 5
10 0 5
10 1 2
10 2 4
10 3 3
10 4 2
10 5 5
10 6 1
10 7 4
10 8 4
10 9 3
11 0 1
11 1 5
11 2 1
11 3 4
11 4 1
11 5 4
11 6 4
11 7 2
11 8 3
11 9 5
11 10 1
12 0 4
12 1 2
12 2 3
12 3 4
12 4 5
12 5 2
12 6 5
12 7 4
12 8 2
12 9 3
12 10 2
12 11 4
13 0 1
13 1 4
13 2 1
13 3 4
13 4 4
13 5 2
13 6 3
13 7 2
13 8 2
13 9 4
13 10 2
13 11 3
13 12 5
14 0 5
14 1 1
14 2 5
14 3 5
14 4 2
14 5 3
14 6 3
14 7 1
14 8 2
14 9 2
14 10 3
14 11 5
14 12 5
14 13 1
15 0 2
15 1 1
15 2 5
15 3 2
15 4 1
15 5 1
15 6 5
15 7 5
15 8 1
15 9 2
15 10 5
15 11 4
15 12 1
15 13 5
15 14 2
16 0 5
16 1 3
16 2 2
16 3 3
16 4 3
16 5 1
16 6 5
16 7 2
16 8 2
16 9 3
16 10 5
16 11 3
16 12 5
16 13 1
16 14 3
16 15 5
17 0 1
17 1 3
17 2 4
17 3 2
17 4 4
17 5 4
17 6 2
17 7 3
17 8 5
17 9 5
17 10 2
17 11 5
17 12 3
17 13 4
17 14 2
17 15 5
17 16 4
18 0 3
18 1 2
18 2 2
18 3 3
18 4 2
18 5 2
18 6 2
18 7 2
18 8 2
18 9 1
18 10 4
18 11 5
18 12 2
18 13 5
18 14 4
18 15 4
18 16 5
18 17 3
19 0 4
19 1 4
19 2 5
19 3 2
19 4 5
19 5 1
19 6 1
19 7 4
19 8 5
19 9 4
19 10 1
19 11 3
19 12 4
19 13 1
19 14 1
19 15 2
19 16 4
19 17 3
19 18 2
20 0 4
20 1 2
20 2 4
20 3 4
20 4 5
20 5 1
20 6 5
20 7 3
20 8 5
20 9 2
20 10 5
20 11 3
20 12 5
20 13 2
20 14 1
20 15 1
20 16 4
20 17 5
20 18 3
20 19 4
21 0 2
21 1 2
21 2 3
21 3 3
21 4 4
21 5 5
21 6 5
21 7 4
21 8 4
21 9 5
21 10 1
21 11 5
21 12 1
21 13 2
21 14 3
21 15 5
21 16 2
21 17 2
21 18 3
21 19 3
21 20 1
22 0 5
22 1 4
22 2 1
22 3 4
22 4 5
22 5 4
22 6 2
22 7 4
22 8 3
22 9 4
22 10 3
22 11 3
22 12 2
22 13 5
22 14 4
22 15 5
22 16 1
22 17 5
22 18 1
22 19 3
22 20 2
22 21 3
23 0 4
23 1 1
23 2 2
23 3 1
23 4 2
23 5 5
23 6 3
23 7 1
23 8 5
23 9 4
23 10 2
23 11 1
23 12 3
23 13 1
23 14 1
23 15 1
23 16 2
23 17 5
23 18 1
23 19 1
23 20 3
23 21 3
23 22 2
24 0 1
24 1 3
24 2 3
24 3 2
24 4 1
24 5 3
24 6 2
24 7 4
24 8 4
24 9 3
24 10 1
24 11 1
24 12 1
24 13 1
24 14 3
24 15 1
24 16 4
24 17 2
24 18 3
24 19 3
24 20 4
24 21 5
24 22 2
24 23 3
25 0 3
25 1 3
25 2 1
25 3 5
25 4 2
25 5 1
25 6 3
25 7 1
25 8 4
25 9 3
25 10 5
25 11 4
25 12 3
25 13 5
25 14 3
25 15 5
25 16 4
25 17 4
25 18 3
25 19 1
25 20 5
25 21 2
25 22 5
25 23 2
25 24 3
26 0 1
26 1 5
26 2 2
26 3 1
26 4 4
26 5 2
26 6 4
26 7 1
26 8 3
26 9 1
26 10 1
26 11 1
26 12 3
26 13 3
26 14 1
26 15 2
26 16 4
26 17 4
26 18 1
26 19 2
26 20 1
26 21 4
26 22 3
26 23 5
26 24 5
26 25 4
27 0 4
27 1 5
27 2 1
27 3 5
27 4 2
27 5 5
27 6 4
27 7 5
27 8 5
27 9 1
27 10 3
27 11 5
27 12 3
27 13 3
27 14 3
27 15 5
27 16 2
27 17 3
27 18 3
27 19 5
27 20 5
27 21 3
27 22 3
27 23 3
27 24 5
27 25 1
27 26 4
28 0 4
28 1 3
28 2 4
28 3 5
28 4 4
28 5 5
28 6 5
28 7 4
28 8 4
28 9 3
28 10 5
28 11 3
28 12 4
28 13 1
28 14 1
28 15 5
28 16 1
28 17 4
28 18 5
28 19 1
28 20 4
28 21 2
28 22 4
28 23 2
28 24 2
28 25 4
28 26 3
28 27 2
29 0 4
29 1 5
29 2 5
29 3 5
29 4 4
29 5 4
29 6 4
29 7 2
29 8 2
29 9 2
29 10 4
29 11 3
29 12 4
29 13 3
29 14 5
29 15 2
29 16 5
29 17 3
29 18 3
29 19 1
29 20 3
29 21 3
29 22 2
29 23 5
29 24 2
29 25 5
29 26 2
29 27 4
29 28 4
30 0 5
30 1 4
30 2 2
30 3 3
30 4 5
30 5 4
30 6 1
30 7 1
30 8 2
30 9 2
30 10 5
30 11 5
30 12 2
30 13 2
30 14 3
30 15 3
30 16 4
30 17 3
30 18 5
30 19 1
30 20 5
30 21 2
30 22 3
30 23 1
30 24 1
30 25 1
30 26 3
30 27 1
30 28 4
30 29 4
31 0 3
31 1 2
31 2 2
31 3 4
31 4 5
31 5 1
31 6 2
31 7 2
31 8 4
31 9 3
31 10 3
31 11 1
31 12 4
31 13 5
31 14 1
31 15 2
31 16 4
31 17 1
31 18 4
31 19 4
31 20 2
31 21 1
31 22 5
31 23 5
31 24 1
31 25 2
31 26 2
31 27 5
31 28 5
31 29 3
31 30 2
32 0 2
32 1 1
32 2 5
32 3 5
32 4 5
32 5 1
32 6 1
32 7 1
32 8 1
32 9 1
32 10 1
32 11 5
32 12 5
32 13 5
32 14 1
32 15 4
32 16 2
32 17 1
32 18 2
32 19 3
32 20 3
32 21 5
32 22 4
32 23 4
32 24 4
32 25 3
32 26 1
32 27 2
32 28 5
32 29 3
32 30 3
32 31 2
33 0 3
33 1 2
33 2 3
33 3 3
33 4 3
33 5 5
33 6 2
33 7 5
33 8 4
33 9 2
33 10 1
33 11 5
33 12 4
33 13 4
33 14 2
33 15 2
33 16 4
33 17 2
33 18 2
33 19 1
33 20 1
33 21 4
33 22 4
33 23 1
33 24 1
33 25 5
33 26 2
33 27 2
33 28 3
33 29 5
33 30 4
33 31 2
33 32 4
34 0 5
34 1 1
34 2 3
34 3 5
34 4 3
34 5 5
34 6 4
34 7 2
34 8 3
34 9 4
34 10 4
34 11 5
34 12 5
34 13 4
34 14 2
34 15 2
34 16 2
34 17 4
34 18 1
34 19 2
34 20 2
34 21 3
34 22 5
34 23 4
34 24 5
34 25 2
34 26 5
34 27 5
34 28 3
34 29 3
34 30 3
34 31 4
34 32 4
34 33 2
35 0 4
35 1 1
35 2 1
35 3 2
35 4 3
35 5 4
35 6 3
35 7 4
35 8 4
35 9 2
35 10 5
35 11 5
35 12 2
35 13 3
35 14 3
35 15 1
35 16 4
35 17 1
35 18 2
35 19 1
35 20 2
35 21 5
35 22 3
35 23 2
35 24 4
35 25 4
35 26 5
35 27 2
35 28 3
35 29 5
35 30 1
35 31 1
35 32 4
35 33 4
35 34 5
36 0 5
36 1 5
36 2 3
36 3 5
36 4 1
36 5 2
36 6 2
36 7 2
36 8 5
36 9 2
36 10 3
36 11 3
36 12 3
36 13 1
36 14 1
36 15 1
36 16 5
36 17 3
36 18 5
36 19 4
36 20 3
36 21 1
36 22 2
36 23 2
36 24 2
36 25 2
36 26 3
36 27 3
36 28 5
36 29 3
36 30 2
36 31 5
36 32 4
36 33 2
36 34 4
36 35 1
37 0 5
37 1 2
37 2 2
37 3 1
37 4 1
37 5 4
37 6 3
37 7 5
37 8 2
37 9 3
37 10 3
37 11 4
37 12 4
37 13 3
37 14 3
37 15 5
37 16 5
37 17 5
37 18 4
37 19 1
37 20 2
37 21 2
37 22 5
37 23 3
37 24 2
37 25 4
37 26 4
37 27 1
37 28 4
37 29 3
37 30 2
37 31 2
37 32 1
37 33 3
37 34 2
37 35 3
37 36 3
38 0 4
38 1 5
38 2 2
38 3 3
38 4 5
38 5 2
38 6 4
38 7 3
38 8 2
38 9 3
38 10 5
38 11 3
38 12 3
38 13 1
38 14 1
38 15 2
38 16 5
38 17 2
38 18 5
38 19 1
38 20 1
38 21 1
38 22 3
38 23 4
38 24 5
38 25 5
38 26 2
38 27 3
38 28 2
38 29 2
38 30 1
38 31 5
38 32 4
38 33 3
38 34 5
38 35 1
38 36 2
38 37 3
39 0 5
39 1 2
39 2 3
39 3 4
39 4 4
39 5 5
39 6 1
39 7 2
39 8 3
39 9 2
39 10 4
39 11 1
39 12 2
39 13 3
39 14 4
39 15 2
39 16 2
39 17 2
39 18 1
39 19 3
39 20 2
39 21 5
39 22 2
39 23 4
39 24 1
39 25 5
39 26 4
39 27 2
39 28 1
39 29 5
39 30 2
39 31 5
39 32 4
39 33 4
39 34 5
39 35 3
39 36 5
39 37 4
39 38 2
40 0 5
40 1 3
40 2 1
40 3 3
40 4 1
40 5 2
40 6 3
40 7 2
40 8 3
40 9 1
40 10 1
40 11 5
40 12 5
40 13 4
40 14 4
40 15 4
40 16 1
40 17 1
40 18 2
40 19 1
40 20 3
40 21 1
40 22 3
40 23 1
40 24 3
40 25 5
40 26 4
40 27 4
40 28 5
40 29 2
40 30 2
40 31 4
40 32 5
40 33 1
40 34 1
40 35 5
40 36 1
40 37 1
40 38 5
40 39 5
41 0 2
41 1 4
41 2 1
41 3 2
41 4 4
41 5 5
41 6 2
41 7 1
41 8 3
41 9 1
41 10 3
41 11 1
41 12 3
41 13 4
41 14 1
41 15 4
41 16 1
41 17 1
41 18 3
41 19 1
41 20 5
41 21 1
41 22 1
41 23 5
41 24 4
41 25 2
41 26 5
41 27 2
41 28 1
41 29 4
41 30 4
41 31 5
41 32 5
41 33 5
41 34 3
41 35 3
41 36 3
41 37 2
41 38 1
41 39 1
41 40 4
42 0 3
42 1 2
42 2 3
42 3 1
42 4 3
42 5 4
42 6 5
42 7 3
42 8 4
42 9 1
42 10 1
42 11 3
42 12 2
42 13 3
42 14 5
42 15 4
42 16 4
42 17 4
42 18 4
42 19 1
42 20 2
42 21 3
42 22 5
42 23 4
42 24 3
42 25 2
42 26 2
42 27 3
42 28 2
42 29 5
42 30 3
42 31 5
42 32 3
42 33 1
42 34 5
42 35 4
42 36 2
42 37 5
42 38 4
42 39 2
42 40 2
42 41 2
43 0 2
43 1 5
43 2 5
43 3 3
43 4 1
43 5 1
43 6 3
43 7 1
43 8 1
43 9 1
43 10 3
43 11 2
43 12 4
43 13 2
43 14 3
43 15 1
43 16 1
43 17 5
43 18 5
43 19 1
43 20 3
43 21 3
43 22 3
43 23 4
43 24 4
43 25 1
43 26 5
43 27 5
43 28 5
43 29 1
43 30 1
43 31 5
43 32 1
43 33 4
43 34 2
43 35 1
43 36 1
43 37 2
43 38 2
43 39 3
43 40 5
43 41 3
43 42 1
44 0 5
44 1 1
44 2 3
44 3 5
44 4 5
44 5 1
44 6 4
44 7 1
44 8 5
44 9 3
44 10 3
44 11 3
44 12 5
44 13 3
44 14 2
44 15 5
44 16 5
44 17 2
44 18 3
44 19 3
44 20 5
44 21 3
44 22 2
44 23 5
44 24 1
44 25 5
44 26 3
44 27 2
44 28 1
44 29 4
44 30 1
44 31 2
44 32 2
44 33 5
44 34 5
44 35 2
44 36 2
44 37 5
44 38 5
44 39 1
44 40 4
44 41 1
44 42 4
44 43 2
45 0 3
45 1 3
45 2 2
45 3 2
45 4 1
45 5 1
45 6 2
45 7 5
45 8 4
45 9 5
45 10 1
45 11 5
45 12 3
45 13 4
45 14 4
45 15 2
45 16 3
45 17 4
45 18 4
45 19 4
45 20 2
45 21 5
45 22 2
45 23 2
45 24 5
45 25 3
45 26 5
45 27 1
45 28 4
45 29 1
45 30 3
45 31 2
45 32 5
45 33 1
45 34 5
45 35 2
45 36 3
45 37 2
45 38 4
45 39 1
45 40 2
45 41 5
45 42 1
45 43 1
45 44 1
46 0 2
46 1 5
46 2 4
46 3 2
46 4 3
46 5 5
46 6 2
46 7 3
46 8 5
46 9 1
46 10 4
46 11 5
46 12 3
46 13 2
46 14 1
46 15 2
46 16 1
46 17 1
46 18 1
46 19 2
46 20 1
46 21 2
46 22 3
46 23 2
46 24 5
46 25 4
46 26 5
46 27 5
46 28 5
46 29 4
46 30 2
46 31 3
46 32 1
46 33 5
46 34 4
46 35 3
46 36 5
46 37 3
46 38 2
46 39 1
46 40 3
46 41 3
46 42 1
46 43 5
46 44 3
46 45 5
47 0 1
47 1 2
47 2 5
47 3 2
47 4 4
47 5 1
47 6 1
47 7 1
47 8 4
47 9 5
47 10 2
47 11 1
47 12 3
47 13 2
47 14 3
47 15 1
47 16 5
47 17 3
47 18 4
47 19 3
47 20 5
47 21 1
47 22 1
47 23 2
47 24 3
47 25 1
47 26 5
47 27 2
47 28 1
47 29 3
47 30 5
47 31 3
47 32 5
47 33 3
47 34 3
47 35 1
47 36 2
47 37 5
47 38 1
47 39 2
47 40 3
47 41 2
47 42 2
47 43 1
47 44 1
47 45 5
47 46 5
48 0 3
48 1 3
48 2 2
48 3 4
48 4 1
48 5 4
48 6 1
48 7 2
48 8 2
48 9 3
48 10 3
48 11 3
48 12 1
48 13 4
48 14 2
48 15 5
48 16 4
48 17 2
48 18 5
48 19 2
48 20 2
48 21 1
48 22 1
48 23 4
48 24 3
48 25 1
48 26 3
48 27 4
48 28 5
48 29 1
48 30 2
48 31 5
48 32 2
48 33 4
48 34 3
48 35 3
48 36 4
48 37 4
48 38 1
48 39 4
48 40 4
48 41 1
48 42 2
48 43 3
48 44 4
48 45 3
48 46 1
48 47 2
49 0 2
49 1 4
49 2 3
49 3 5
49 4 5
49 5 1
49 6 2
49 7 5
49 8 4
49 9 5
49 10 5
49 11 5
49 12 5
49 13 4
49 14 5
49 15 5
49 16 3
49 17 4
49 18 1
49 19 5
49 20 4
49 21 2
49 22 1
49 23 1
49 24 5
49 25 2
49 26 3
49 27 4
49 28 1
49 29 3
49 30 3
49 31 3
49 32 5
49 33 1
49 34 2
49 35 4
49 36 1
49 37 4
49 38 1
49 39 4
49 40 1
49 41 2
49 42 3
49 43 1
49 44 5
49 45 1
49 46 1
49 47 5
49 48 5
50 0 2
50 1 4
50 2 2
50 3 1
50 4 5
50 5 3
50 6 2
50 7 5
50 8 5
50 9 1
50 10 2
50 11 1
50 12 5
50 13 4
50 14 1
50 15 2
50 16 1
50 17 1
50 18 5
50 19 5
50 20 4
50 21 5
50 22 2
50 23 1
50 24 4
50 25 3
50 26 2
50 27 5
50 28 2
50 29 1
50 30 1
50 31 1
50 32 4
50 33 1
50 34 2
50 35 5
50 36 3
50 37 4
50 38 2
50 39 5
50 40 5
50 41 3
50 42 1
50 43 5
50 44 2
50 45 2
50 46 1
50 47 4
50 48 4
50 49 1
51 0 5
51 1 4
51 2 3
51 3 1
51 4 3
51 5 1
51 6 3
51 7 4
51 8 4
51 9 1
51 10 4
51 11 5
51 12 2
51 13 3
51 14 5
51 15 3
51 16 4
51 17 5
51 18 2
51 19 4
51 20 5
51 21 1
51 22 4
51 23 1
51 24 1
51 25 4
51 26 4
51 27 3
51 28 5
51 29 4
51 30 2
51 31 2
51 32 4
51 33 4
51 34 4
51 35 3
51 36 1
51 37 4
51 38 4
51 39 5
51 40 3
51 41 4
51 42 4
51 43 2
51 44 5
51 45 3
51 46 3
51 47 2
51 48 1
51 49 2
51 50 1
52 0 1
52 1 2
52 2 3
52 3 2
52 4 2
52 5 3
52 6 5
52 7 2
52 8 4
52 9 1
52 10 4
52 11 2
52 12 3
52 13 5
52 14 5
52 15 4
52 16 5
52 17 5
52 18 5
52 19 2
52 20 2
52 21 4
52 22 3
52 23 2
52 24 2
52 25 1
52 26 1
52 27 5
52 28 5
52 29 3
52 30 1
52 31 4
52 32 2
52 33 1
52 34 4
52 35 4
52 36 5
52 37 1
52 38 1
52 39 5
52 40 5
52 41 1
52 42 5
52 43 3
52 44 3
52 45 2
52 46 2
52 47 5
52 48 3
52 49 2
52 50 1
52 51 4
53 0 3
53 1 1
53 2 1
53 3 5
53 4 3
53 5 4
53 6 5
53 7 1
53 8 1
53 9 1
53 10 3
53 11 5
53 12 4
53 13 5
53 14 2
53 15 3
53 16 1
53 17 1
53 18 5
53 19 3
53 20 3
53 21 4
53 22 1
53 23 3
53 24 5
53 25 5
53 26 1
53 27 4
53 28 3
53 29 3
53 30 5
53 31 5
53 32 1
53 33 2
53 34 1
53 35 3
53 36 5
53 37 4
53 38 3
53 39 3
53 40 5
53 41 1
53 42 1
53 43 3
53 44 4
53 45 4
53 46 1
53 47 2
53 48 1
53 49 1
53 50 1
53 51 1
53 52 5
54 0 5
54 1 5
54 2 2
54 3 5
54 4 3
54 5 2
54 6 5
54 7 2
54 8 3
54 9 4
54 10 3
54 11 3
54 12 2
54 13 2
54 14 5
54 15 1
54 16 3
54 17 2
54 18 3
54 19 5
54 20 4
54 21 5
54 22 3
54 23 4
54 24 2
54 25 4
54 26 2
54 27 1
54 28 3
54 29 4
54 30 2
54 31 5
54 32 5
54 33 5
54 34 3
54 35 4
54 36 3
54 37 3
54 38 2
54 39 4
54 40 3
54 41 3
54 42 2
54 43 3
54 44 3
54 45 5
54 46 2
54 47 2
54 48 5
54 49 2
54 50 4
54 51 3
54 52 2
54 53 5
55 0 4
55 1 1
55 2 4
55 3 3
55 4 4
55 5 4
55 6 3
55 7 4
55 8 2
55 9 2
55 10 5
55 11 4
55 12 1
55 13 4
55 14 1
55 15 2
55 16 1
55 17 1
55 18 1
55 19 3
55 20 5
55 21 2
55 22 5
55 23 2
55 24 4
55 25 1
55 26 2
55 27 2
55 28 5
55 29 3
55 30 2
55 31 3
55 32 4
55 33 3
55 34 4
55 35 2
55 36 3
55 37 3
55 38 4
55 39 4
55 40 4
55 41 5
55 42 5
55 43 5
55 44 3
55 45 1
55 46 4
55 47 5
55 48 1
55 49 1
55 50 3
55 51 4
55 52 1
55 53 4
55 54 1
56 0 4
56 1 2
56 2 1
56 3 5
56 4 2
56 5 3
56 6 3
56 7 4
56 8 3
56 9 2
56 10 2
56 11 4
56 12 4
56 13 1
56 14 5
56 15 4
56 16 5
56 17 1
56 18 5
56 19 1
56 20 1
56 21 1
56 22 1
56 23 5
56 24 3
56 25 4
56 26 4
56 27 5
56 28 3
56 29 4
56 30 1
56 31 1
56 32 1
56 33 1
56 34 4
56 35 2
56 36 2
56 37 3
56 38 3
56 39 4
56 40 5
56 41 1
56 42 3
56 43 1
56 44 3
56 45 4
56 46 5
56 47 4
56 48 1
56 49 1
56 50 2
56 51 4
56 52 4
56 53 2
56 54 3
56 55 2
57 0 4
57 1 1
57 2 1
57 3 3
57 4 1
57 5 2
57 6 1
57 7 5
57 8 3
57 9 3
57 10 1
57 11 1
57 12 3
57 13 1
57 14 1
57 15 5
57 16 5
57 17 1
57 18 3
57 19 3
57 20 1
57 21 2
57 22 2
57 23 3
57 24 1
57 25 5
57 26 2
57 27 3
57 28 2
57 29 2
57 30 1
57 31 3
57 32 2
57 33 1
57 34 4
57 35 1
57 36 5
57 37 4
57 38 3
57 39 5
57 40 2
57 41 5
57 42 3
57 43 4
57 44 4
57 45 1
57 46 2
57 47 2
57 48 3
57 49 1
57 50 5
57 51 2
57 52 5
57 53 1
57 54 1
57 55 5
57 56 5
58 0 5
58 1 5
58 2 2
58 3 4
58 4 1
58 5 4
58 6 5
58 7 1
58 8 2
58 9 3
58 10 4
58 11 2
58 12 1
58 13 5
58 14 4
58 15 5
58 16 2
58 17 1
58 18 2
58 19 5
58 20 2
58 21 3
58 22 5
58 23 5
58 24 1
58 25 2
58 26 2
58 27 2
58 28 5
58 29 5
58 30 1
58 31 1
58 32 1
58 33 3
58 34 1
58 35 5
58 36 4
58 37 4
58 38 4
58 39 5
58 40 4
58 41 2
58 42 5
58 43 4
58 44 4
58 45 5
58 46 4
58 47 4
58 48 5
58 49 3
58 50 2
58 51 2
58 52 5
58 53 5
58 54 5
58 55 5
58 56 1
58 57 1
59 0 2
59 1 2
59 2 5
59 3 3
59 4 3
59 5 3
59 6 3
59 7 1
59 8 5
59 9 3
59 10 1
59 11 2
59 12 5
59 13 2
59 14 3
59 15 4
59 16 3
59 17 2
59 18 1
59 19 3
59 20 1
59 21 5
59 22 3
59 23 4
59 24 1
59 25 3
59 26 1
59 27 2
59 28 2
59 29 2
59 30 5
59 31 5
59 32 3
59 33 2
59 34 1
59 35 4
59 36 4
59 37 3
59 38 2
59 39 3
59 40 3
59 41 2
59 42 5
59 43 4
59 44 5
59 45 4
59 46 4
59 47 5
59 48 1
59 49 3
59 50 2
59 51 2
59 52 2
59 53 2
59 54 2
59 55 5
59 56 5
59 57 2
59 58 5
